benchmarks/VRPTW/TSPTW/solution/n20w140.004.txt.solution
1 14 6 5 2 19 11 18 8 7 12 17 16 4 9 20 13 15 10 3 21 
255
